1159
1120
1092
1007
1048
1048
1078
1059
1059
1059
1063
1105
1105
1105
1032
1093
1093
1040
1040
957
928
928
928
928
938
938
938
953
953
953
953
953
953
953
1004
1004
1004
1004
979
1064
1075
969
969
969
969
1056
1021
1021
1021
1011
1029
1008
1008
1055
987
1003
1024
1024
1084
1051
988
1038
1038
1038
1038
1038
998
937
907
937
978
905
881
881
881
896
896
879
879
879
879
860
860
864
864
864
864
872
875
847
847
909
978
972
972
908
908
922
922
833
982
968
990
983
996
996
939
880
880
880
880
939
939
925
925
925
925
944
944
921
944
944
951
969
882
882
882
882
962
821
861
863
895
895
895
923
923
838
908
908
908
899
899
899
899
899
899
830
899
899
874
914
946
969
988
831
831
831
831
815
815
815
815
815
946
935
912
912
864
864
864
864
864
929
929
879
879
929
911
946
946
978
957
890
890
964
964
964
920
920
913
913
913
909
752
752
752
909
909
909
909
916
916
916
916
916
855
855
855
855
855
855
883
893
893
893
893
844
957
957
907
907
907
907
905
905
931
923
923
885
938
938
918
965
889
889
889
889
889
889
889
840
886
912
931
934
973
921
918
883
883
953
972
983
940
809
809
914
914
945
943
943
893
893
893
863
787
787
845
845
845
805
805
845
845
845
845
845
892
892
936
944
901
901
842
842
842
842
842
810
810
815
815
815
815
833
819
819
819
819
790
830
830
830
830
830
878
883
770
770
770
770
770
770
792
866
866
823
823
823
798
798
798
831
831
903
775
775
793
777
728
838
780
780
815
815
742
742
656
656
656
656
656
742
742
762
762
762
762
795
805
855
712
855
845
855
855
855
766
766
766
799
841
855
866
845
845
846
846
820
820
820
820
793
793
845
689
689
689
689
820
803
803
823
731
696
696
696
696
616
696
696
696
704
704
681
704
704
717
745
745
745
745
745
745
745
745
751
720
720
706
706
643
643
643
810
791
810
784
767
776
777
803
803
737
755
849
841
782
782
728
659
659
699
691
691
691
715
715
749
749
724
749
749
728
716
781
759
741
741
717
741
750
704
750
682
791
791
791
707
707
707
773
773
785
785
766
766
785
785
808
783
739
703
703
609
609
609
753
709
688
723
723
723
736
736
736
642
642
710
736
736
736
736
736
710
710
687
738
738
706
706
692
716
708
708
672
672
672
698
698
741
741
655
718
718
718
718
718
718
645
645
645
663
663
663
663
706
632
632
663
606
669
686
641
641
667
667
667
641
649
606
606
606
606
606
606
606
606
606
606
606
606
636
636
636
664
665
665
665
665
665
615
615
615
615
615
615
615
615
629
629
666
585
666
653
653
653
620
608
620
620
620
620
625
625
625
625
625
625
589
629
629
617
631
631
633
633
633
633
630
576
576
576
536
536
529
529
529
529
505
505
505
536
543
594
499
636
638
609
602
602
602
602
602
602
644
616
616
612
581
609
612
624
608
630
630
630
572
572
572
632
585
572
572
581
572
572
572
572
562
572
572
572
526
526
526
629
614
597
604
604
595
610
584
590
590
590
585
585
590
553
553
553
553
553
557
557
566
565
553
596
581
623
629
606
603
583
583
583
583
555
549
606
608
636
636
636
615
602
597
597
597
597
582
582
582
564
564
564
564
564
564
564
575
524
524
583
583
552
534
534
534
552
562
562
529
558
558
529
558
558
558
550
577
536
536
536
536
536
560
560
560
560
486
566
551
540
540
570
601
608
605
599
592
581
560
560
581
559
547
547
547
564
564
576
580
565
561
537
561
579
561
561
525
525
547
526
551
551
551
551
486
486
486
486
529
529
529
523
528
531
531
494
522
522
542
503
503
503
503
542
518
518
533
528
528
528
528
528
519
519
519
519
519
519
488
488
488
488
488
488
519
519
472
488
488
457
468
468
491
491
491
491
491
469
469
469
490
494
494
494
469
469
469
469
469
525
512
490
490
490
490
490
490
515
492
492
492
484
479
479
479
460
460
460
476
458
458
468
483
444
444
456
449
449
481
481
481
481
481
487
461
461
463
441
441
441
441
455
447
422
447
447
447
447
417
417
442
447
434
438
438
447
447
447
478
407
407
407
434
434
448
445
437
427
427
427
385
410
386
386
386
386
386
386
386
413
413
444
444
424
396
373
396
421
421
398
398
379
379
412
412
392
386
386
386
386
390
390
390
390
390
363
363
363
363
363
363
363
363
363
363
363
363
348
348
348
348
348
346
348
348
348
345
348
348
348
348
348
348
379
349
349
355
355
334
334
334
334
334
334
334
334
334
334
334
334
355
355
355
355
355
355
355
355
355
355
355
355
353
355
355
346
346
330
330
330
330
330
330
348
348
348
353
353
348
348
345
333
333
348
344
348
348
344
344
344
344
344
344
344
344
344
344
340
340
344
344
344
332
332
332
335
335
344
333
344
333
333
334
344
344
344
344
344
344
344
332
332
344
344
334
344
333
344
332
332
332
332
334
334
332
332
334
333
334
334
334
333
334
332
332
334
334
334
334
334
332
332
332
332
332
332
332
332
332
332
334
333
332
334
334
334
333
333
332
332
332
332
332
333
333
333
333
333
332
332
332
334
334
334
334
334
334
334
334
332
332
334
332
332
332
323
297
334
334
334
333
333
334
334
334
334
334
334
334
334
334
333
332
333
333
334
334
332
334
334
334
334
334
332
333
333
332
332
332
332
332
332
332
334
334
334
334
334
334
334
334
334
334
334
334
334
334
334
334
334
334
334
334
334
334
334
334
334
334
334
334
334
334
334
334
334
334
334
334
334
334
334
334
334
334
334
334
334
334
334
334
334
334
334
334
334
334
334
334
334
334
334
334
334
334
334
334
334
334
334
334
334
334
334
334
334
334
334
334
334
334
334
334
334
334
334
334
334
334
334
334
334
334
334
334
334
334
334
334
334
334
334
334
334
334
334
334
334
334
334
334
334
334
334
334
334
334
334
334
334
334
334
334
334
334
334
334
334
334
334
334
334
334
334
334
334
334
334
334
334
334
334
334
334
334
334
334
334
334
334
334
334
334
334
334
334
334
334
334
334
334
334
334
334
334
334
334
334
334
334
334
334
334
334
334
334
334
334
334
334
334
334
334
334
334
334
334
334
334
334
334
334
334
334
334
334
334
334
334
334
334
334
334
334
334
334
334
334
334
334
334
334
334
334
334
334
334
334
334
334
334
334
334
334
334
334
334
334
334
334
334
334
334
334
334
334
334
334
334
334
334
334
334
334
334
334
334
334
334
334
334
334
334
334
334
334
334
334
334
334
334
334
334
334
334
334
334
334
334
334
334
334
334
334
334
334
334
334
334
334
334
334
334
334
334
334
334
334
334
334
334
334
334
334
334
334
334
334
334
334
334
334
334
334
334
334
334
334
334
334
334
334
334
334
334
334
334
334
334
334
334
334
334
334
334
334
334
334
334
334
334
334
334
334
334
334
334
334
334
334
334
334
334
334
334
334
334
334
334
334
334
334
334
334
334
334
334
334
334
334
334
334
334
334
334
334
334
334
334
334
334
334
334
334
334
334
334
334
334
334
334
334
334
334
334
334
334
334
334
334
334
334
334
334
334
334
334
334
334
334
334
334
334
334
334
334
334
334
334
334
334
334
334
334
334
334
334
334
334
334
334
334
334
334
334
334
334
334
334
334
334
334
334
334
334
334
334
334
334
334
334
334
334
334
334
334
334
334
334
334
334
334
334
334
334
334
334
334
334
334
334
334
334
334
334
334
334
334
334
334
334
334
334
334
334
334
334
334
334
334
334
334
334
334
334
334
334
334
334
334
334
334
334
334
334
334
334
334
334
334
334
334
334
334
334
334
334
334
334
334
334
334
334
334
334
334
334
334
334
334
334
334
334
334
334
334
334
334
334
334
334
334
334
334
334
334
334
334
334
334
334
334
334
334
334
334
334
334
334
334
334
334
334
334
334
334
334
334
334
334
334
334
334
334
334
334
334
334
334
334
334
334
334
334
334
334
334
334
334
334
334
334
334
334
334
334
334
334
334
334
334
334
334
334
334
334
334
334
334
334
334
334
334
334
334
334
334
334
334
334
334
334
334
334
334
334
334
334
334
334
334
334
334
334
334
334
334
334
334
334
334
334
334
334
334
334
334
334
334
334
334
334
334
334
334
334
334
334
334
334
334
334
334
334
334
334
334
334
334
334
334
334
334
334
334
334
334
334
334
334
334
334
334
334
334
334
334
334
334
334
334
334
334
334
334
334
334
334
334
334
334
334
334
334
334
334
334
334
334
334
334
334
334
334
334
334
334
334
334
334
334
334
334
334
334
334
334
334
334
334
334
334
334
334
334
334
334
334
334
334
334
334
334
334
334
334
334
334
334
334
334
334
334
334
334
334
334
334
334
334
334
334
334
334
334
334
334
334
334
334
334
334
334
334
334
334
334
334
334
334
334
334
334
334
334
334
334
334
334
334
334
334
334
334
334
334
334
334
334
334
334
334
334
334
334
334
334
334
334
334
334
334
334
334
334
334
334
334
334
334
334
334
334
334
334
334
334
334
334
334
334
334
